NAME: tsp20-32
TYPE: TSP
DIMENSION: 20
EDGE_WEIGHT_TYPE: EUC_2D
NODE_COORD_SECTION
0 34 72
1 32 57
2 37 35
3 45 78
4 22 93
5 60 45
6 6 49
7 31 79
8 15 19
9 20 36
10 47 67
11 34 80
12 63 53
13 72 8
14 43 51
15 56 32
16 92 74
17 4 17
18 90 80
19 37 92
EOF